s td 367 5 434
b 1 7
b 2 133 269
b 3 65 232
b 4 37 269 270
b 5 126 232 233
b 6 130 270 271
b 7 38 224
b 8 66 114
b 9 212 284
b 10 55 246
b 11 45 246 247
b 12 198 284 285
b 13 197 285 286
b 14 100 247 248
b 15 161 248 249
b 16 61 249 250
b 17 154 250 251
b 18 57 251 252
b 19 5 252 253
b 20 48 286 287
b 21 19 216
b 22 140 341 342
b 23 178 342 343
b 24 121 343 344
b 25 23 344 345
b 26 29 345 346
b 27 188 346 347
b 28 160 340 341
b 29 192 339 340
b 30 97 241 242
b 31 159 242 243
b 32 34 397 398
b 33 92 398 399
b 34 166 399 400
b 35 53 400 401
b 36 26 401 402
b 37 196 402 403
b 38 190 403 404
b 39 207 404 405
b 40 125 405 406
b 41 67 406 407
b 42 4 407 408
b 43 94 408 409
b 44 24 396 397
b 45 128 395 396
b 46 35 394 395
b 47 86 393 394
b 48 124 392 393
b 49 105 391 392
b 50 3 390 391
b 51 42 389 390
b 52 204 388 389
b 53 189 387 388
b 54 64 386 387
b 55 89 385 386
b 56 137 384 385
b 57 75 383 384
b 58 168 382 383
b 59 54 381 382
b 60 25 380 381
b 61 179 379 380
b 62 119 378 379
b 63 27 377 378
b 64 99 376 377
b 65 148 375 376
b 66 170 374 375
b 67 111 373 374
b 68 41 372 373
b 69 81 371 372
b 70 103 370 371
b 71 21 369 370
b 72 14 368 369
b 73 49 367 368
b 74 174 366 367
b 75 135 365 366
b 76 120 364 365
b 77 59 363 364
b 78 28 362 363
b 79 187 361 362
b 80 211 360 361
b 81 171 359 360
b 82 107 358 359
b 83 96 357 358
b 84 91 356 357
b 85 182 355 356
b 86 175 354 355
b 87 84 353 354
b 88 78 352 353
b 89 183 351 352
b 90 147 350 351
b 91 157 349 350
b 92 85 348 349
b 93 116 334 335
b 94 150 335 336
b 95 83 336 337
b 96 76 337 338
b 97 32 333 334
b 98 176 332 333
b 99 163 331 332
b 100 206 330 331
b 101 9 329 330
b 102 199 328 329
b 103 31 327 328
b 104 208 326 327
b 105 60 167 434
b 106 110 433 434
b 107 62 432 433
b 108 93 431 432
b 109 195 430 431
b 110 95 429 430
b 111 51 428 429
b 112 74 427 428
b 113 43 426 427
b 114 88 425 426
b 115 153 424 425
b 116 194 423 424
b 117 69 422 423
b 118 181 421 422
b 119 33 420 421
b 120 113 419 420
b 121 58 418 419
b 122 144 417 418
b 123 156 416 417
b 124 129 415 416
b 125 164 414 415
b 126 106 413 414
b 127 13 412 413
b 128 165 411 412
b 129 202 410 411
b 130 72 409 410
b 131 44 72 245
b 132 77 244 245
b 133 348 349 350
b 134 146 297 298
b 135 139 296 297
b 136 136 295 296
b 137 109 294 295
b 138 17 293 294
b 139 46 292 293
b 140 20 291 292
b 141 205 290 291
b 142 79 289 290
b 143 215 288 289
b 144 87 287 288
b 145 87 271 272
b 146 30 298 299
b 147 11 299 300
b 148 209 300 301
b 149 142 301 302
b 150 200 302 303
b 151 177 303 304
b 152 98 304 305
b 153 102 305 306
b 154 82 306 307
b 155 52 132 268
b 156 112 267 268
b 157 70 266 267
b 158 2 265 266
b 159 131 264 265
b 160 138 263 264
b 161 39 262 263
b 162 73 261 262
b 163 152 260 261
b 164 18 281 282
b 165 213 280 281
b 166 169 282 283
b 167 22 63 283
b 168 210 216 217
b 169 210 224 225
b 170 305 306 307
b 171 87 272 288
b 172 294 295 296
b 173 341 342 343
b 174 370 371 372
b 175 392 393 394
b 176 290 291 292
b 177 365 366 367
b 178 326 327 328
b 179 359 360 361
b 180 50 255 256
b 181 180 254 255
b 182 184 253 254
b 183 71 256 257
b 184 36 257 258
b 185 134 258 259
b 186 162 259 260
b 187 162 233 234
b 188 145 234 235
b 189 172 235 236
b 190 203 236 237
b 191 158 237 238
b 192 193 238 239
b 193 214 239 240
b 194 257 258 259
b 195 343 344 345
b 196 386 387 388
b 197 290 292 293
b 198 296 297 298
b 199 373 374 375
b 200 326 328 329
b 201 398 399 400
b 202 72 245 409
b 203 298 299 300
b 204 289 290 293
b 205 355 356 357
b 206 395 396 397
b 207 272 288 289
b 208 336 337 338
b 209 341 343 345
b 210 335 336 338
b 211 234 235 236
b 212 388 389 390
b 213 289 293 294
b 214 303 304 305
b 215 388 390 391
b 216 350 351 352
b 217 333 334 335
b 218 353 354 355
b 219 391 392 394
b 220 254 255 256
b 221 402 403 404
b 222 256 257 259
b 223 400 401 402
b 224 151 320 321
b 225 122 321 322
b 226 108 322 323
b 227 143 323 324
b 228 186 324 325
b 229 15 319 320
b 230 117 318 319
b 231 368 369 370
b 232 394 395 397
b 233 364 365 367
b 234 298 300 301
b 235 377 378 379
b 236 381 382 383
b 237 373 375 376
b 238 353 355 357
b 239 272 289 294
b 240 330 331 332
b 241 353 357 358
b 242 173 275 276
b 243 118 274 275
b 244 201 273 274
b 245 406 407 408
b 246 323 324 325
b 247 376 377 379
b 248 376 379 380
b 249 321 322 323
b 250 370 372 373
b 251 333 335 338
b 252 353 358 359
b 253 348 350 352
b 254 234 236 237
b 255 340 341 345
b 256 326 329 330
b 257 303 305 307
b 258 210 217 225
b 259 370 373 376
b 260 241 242 243
b 261 162 234 237
b 262 238 239 240
b 263 348 352 353
b 264 115 277 278
b 265 162 237 238
b 266 101 311 312
b 267 12 312 313
b 268 185 313 314
b 269 1 314 315
b 270 90 315 316
b 271 127 316 317
b 272 406 408 409
b 273 402 404 405
b 274 362 363 364
b 275 314 315 316
b 276 162 256 259
b 277 353 359 361
b 278 353 361 362
b 279 376 380 381
b 280 313 314 316
b 281 386 388 391
b 282 298 301 302
b 283 405 406 409
b 284 394 397 398
b 285 383 384 385
b 286 332 333 338
b 287 362 364 367
b 288 383 385 386
b 289 302 303 307
b 290 330 332 338
b 291 318 319 320
b 292 339 340 345
b 293 345 346 347
b 294 162 238 240
b 295 320 321 323
b 296 274 275 276
b 297 273 274 276
b 298 155 279 280
b 299 339 345 347
b 300 184 254 256
b 301 149 308 309
b 302 40 309 310
b 303 162 240 256
b 304 367 368 370
b 305 244 245 409
b 306 400 402 405
b 307 386 391 394
b 308 383 386 394
b 309 244 405 409
b 310 326 330 338
b 311 353 362 367
b 312 376 381 383
b 313 308 309 310
b 314 348 353 367
b 315 312 313 316
b 316 244 400 405
b 317 311 312 316
b 318 320 323 325
b 319 318 320 325
b 320 383 394 398
b 321 383 398 400
b 322 370 376 383
b 323 348 367 370
b 324 294 296 298
b 325 294 298 302
b 326 272 294 302
b 327 272 302 307
b 328 370 383 400
b 329 244 370 400
b 330 244 348 370
b 331 311 316 317
b 332 184 240 256
b 333 184 325 326 338
b 334 184 318 325 338
b 335 155 310 311 317
b 336 184 240 318 338
b 337 47 217 225 226
b 338 47 217 218 226
b 339 6 218 226 227
b 340 6 218 219 227
b 341 104 219 220 227
b 342 104 220 227 228
b 343 191 220 221 228
b 344 191 221 228 229
b 345 80 221 229 230
b 346 80 221 222 230
b 347 155 308 310 317
b 348 10 222 230 231
b 349 10 222 223 231
b 350 56 68 223 231
b 351 68 338 339
b 352 338 339 347
b 353 240 318 338 347
b 354 155 279 308 317
b 355 16 240 241 243
b 356 16 244 347 348
b 357 16 240 243 244 347
b 358 240 243 244 318 347
b 359 141 243 244 318
b 360 141 273 276 277
b 361 141 273 277 278
b 362 141 273 278 318
b 363 123 272 273 307
b 364 123 273 307 317 318
b 365 273 278 307 317 318
b 366 278 279 307 308 317
b 367 8 278 279 307 308
366 367
354 366
365 366
364 365
362 365
361 362
359 362
358 359
357 358
353 358
336 353
352 353
299 352
351 352
350 351
349 350
348 349
346 348
345 346
344 345
343 344
342 343
341 342
340 341
339 340
338 339
337 338
258 337
168 258
169 258
7 169
21 168
293 299
292 299
255 292
29 292
209 255
28 255
195 209
173 209
23 173
22 173
24 195
25 195
27 293
26 293
334 336
332 336
303 332
300 332
220 300
182 300
19 182
18 19
17 18
16 17
15 16
14 15
11 14
10 11
181 220
180 220
294 303
276 303
222 276
186 276
163 186
162 163
161 162
160 161
159 160
158 159
157 158
156 157
155 156
194 222
183 222
185 194
184 194
265 294
262 294
193 262
192 262
261 265
191 265
254 261
187 261
5 187
3 5
211 254
190 254
189 211
188 211
333 334
319 334
291 319
318 319
295 318
246 318
228 246
227 246
249 295
224 295
226 249
225 249
229 291
230 291
310 333
290 310
256 310
101 256
200 256
102 200
178 200
104 178
103 178
286 290
240 290
99 240
100 240
98 286
251 286
217 251
210 251
94 210
208 210
96 208
95 208
97 217
93 217
355 357
356 357
330 356
329 330
323 330
304 323
314 323
263 314
311 314
287 311
278 311
277 278
79 278
252 277
179 277
81 179
80 179
241 252
82 252
238 241
83 241
218 238
205 238
85 205
84 205
86 218
87 218
274 287
233 287
76 233
177 233
74 177
75 177
77 274
78 274
253 263
88 263
1 263
216 253
133 253
8 253
92 133
91 133
90 216
89 216
231 304
73 304
72 231
71 231
328 329
316 329
306 316
309 316
305 309
283 309
272 283
40 283
43 272
245 272
42 245
41 245
202 305
132 305
130 202
131 202
129 130
128 129
127 128
126 127
125 126
124 125
123 124
122 123
121 122
120 121
119 120
118 119
117 118
116 117
115 116
114 115
113 114
112 113
111 112
110 111
109 110
108 109
107 108
106 107
105 106
273 306
223 306
36 223
35 223
39 273
221 273
37 221
38 221
321 328
322 328
259 322
312 322
279 312
236 312
59 236
58 236
248 279
60 279
247 248
61 248
235 247
64 247
62 235
63 235
250 259
237 259
199 237
65 237
67 199
66 199
174 250
68 250
69 174
70 174
201 321
320 321
308 320
284 320
232 284
32 284
46 232
206 232
44 206
45 206
307 308
288 308
285 288
55 288
57 285
56 285
281 307
219 307
175 219
49 219
47 175
48 175
215 281
196 281
54 196
53 196
212 215
50 215
52 212
51 212
33 201
34 201
260 355
30 260
31 260
360 361
264 361
297 360
296 297
244 297
243 296
242 296
363 364
327 363
289 327
326 327
239 326
325 326
282 325
324 325
198 324
172 324
137 172
136 172
135 198
134 198
234 282
149 282
203 234
148 234
146 203
147 203
213 239
207 239
171 207
143 207
145 171
144 171
20 144
13 20
12 13
9 12
6 145
4 6
2 4
204 213
138 213
197 204
142 204
176 197
139 197
141 176
140 176
257 289
150 289
214 257
170 257
153 170
154 170
151 214
152 214
347 354
298 354
165 298
164 165
166 164
167 166
335 347
313 347
302 313
301 313
331 335
271 331
317 331
266 317
315 317
280 315
267 315
275 280
268 280
270 275
269 275
